50 976
414 642 524 172 182 313 586 809 1 62 363 117 404 702 270 199 271 451 219 389 638 327 988 576 419 33 751 588 491 79 853 189 624 409 136 729 670 522 690 1039 321 606 217 852 443 719 365 305 243 597 
345 693 467 100 141 291 670 781 46 59 357 100 493 661 206 254 310 425 258 407 614 313 901 496 350 121 795 617 439 104 795 141 525 414 45 762 749 518 637 976 416 523 247 759 416 644 395 379 216 657 
